NAME: random-84-17245
TYPE: TSP
COMMENT: size=84 seed=17245
DIMENSION: 170
EDGE_WEIGHT_TYPE: EUC_2D
NODE_COORD_SECTION
+0 715 609
-0 715 609
+1 861 215
-1 563 681
+2 177 359
-2 189 246
+3 677 678
-3 928 537
+4 384 201
-4 836 596
+5 482 984
-5 773 350
+6 176 943
-6 760 538
+7 989 551
-7 159 202
+8 118 169
-8 79 65
+9 732 37
-9 625 45
+10 695 872
-10 371 143
+11 780 834
-11 736 663
+12 336 790
-12 199 499
+13 760 500
-13 495 513
+14 697 460
-14 537 767
+15 690 270
-15 264 733
+16 187 839
-16 282 52
+17 292 248
-17 812 617
+18 209 759
-18 580 607
+19 566 959
-19 721 451
+20 250 863
-20 474 561
+21 781 943
-21 413 657
+22 450 29
-22 473 681
+23 434 493
-23 369 234
+24 838 948
-24 642 819
+25 290 122
-25 451 335
+26 15 584
-26 826 475
+27 278 868
-27 880 707
+28 264 955
-28 150 570
+29 305 559
-29 885 837
+30 557 920
-30 533 792
+31 214 880
-31 107 211
+32 477 365
-32 278 557
+33 66 137
-33 424 303
+34 429 472
-34 873 838
+35 678 623
-35 80 527
+36 741 847
-36 885 928
+37 566 142
-37 846 632
+38 344 887
-38 495 38
+39 110 390
-39 885 214
+40 857 218
-40 874 915
+41 927 827
-41 862 277
+42 337 305
-42 856 899
+43 852 151
-43 205 450
+44 889 92
-44 900 418
+45 856 212
-45 990 353
+46 176 308
-46 327 747
+47 124 185
-47 758 85
+48 684 769
-48 127 593
+49 608 278
-49 683 253
+50 773 752
-50 529 694
+51 580 792
-51 46 548
+52 304 332
-52 70 963
+53 689 602
-53 660 68
+54 184 317
-54 315 262
+55 562 369
-55 245 892
+56 521 698
-56 572 728
+57 893 616
-57 636 44
+58 170 280
-58 373 838
+59 463 598
-59 17 280
+60 553 274
-60 361 200
+61 776 381
-61 457 204
+62 821 779
-62 310 605
+63 568 591
-63 407 664
+64 192 903
-64 362 102
+65 80 598
-65 595 477
+66 380 803
-66 741 446
+67 706 390
-67 572 645
+68 219 346
-68 588 259
+69 901 981
-69 355 95
+70 552 775
-70 454 380
+71 904 353
-71 869 270
+72 102 905
-72 457 765
+73 193 537
-73 399 171
+74 784 475
-74 431 985
+75 103 232
-75 735 489
+76 469 328
-76 292 266
+77 924 835
-77 925 1
+78 321 187
-78 415 589
+79 963 359
-79 367 832
+80 127 71
-80 864 292
+81 949 932
-81 459 391
+82 297 497
-82 744 437
+83 146 698
-83 428 864
+84 278 397
-84 903 449
PRECEDENCE_SECTION
+0 -0
+1 -1
+2 -2
+3 -3
+4 -4
+5 -5
+6 -6
+7 -7
+8 -8
+9 -9
+10 -10
+11 -11
+12 -12
+13 -13
+14 -14
+15 -15
+16 -16
+17 -17
+18 -18
+19 -19
+20 -20
+21 -21
+22 -22
+23 -23
+24 -24
+25 -25
+26 -26
+27 -27
+28 -28
+29 -29
+30 -30
+31 -31
+32 -32
+33 -33
+34 -34
+35 -35
+36 -36
+37 -37
+38 -38
+39 -39
+40 -40
+41 -41
+42 -42
+43 -43
+44 -44
+45 -45
+46 -46
+47 -47
+48 -48
+49 -49
+50 -50
+51 -51
+52 -52
+53 -53
+54 -54
+55 -55
+56 -56
+57 -57
+58 -58
+59 -59
+60 -60
+61 -61
+62 -62
+63 -63
+64 -64
+65 -65
+66 -66
+67 -67
+68 -68
+69 -69
+70 -70
+71 -71
+72 -72
+73 -73
+74 -74
+75 -75
+76 -76
+77 -77
+78 -78
+79 -79
+80 -80
+81 -81
+82 -82
+83 -83
+84 -84
EOF
